clasp version 3.1.0
Reading from ...PME\satisfiability_utills_grounded.asp
Solving...
Answer: 1

SATISFIABLE

Models       : 1     
Calls        : 1
Time         : 0.000s (Solving: 0.00s 1st Model: 0.00s Unsat: 0.00s)
CPU Time     : 0.000s
